SCIP version 5.0.0 [precision: 8 byte] [memory: block] [mode: optimized] [LP solver: NONE] [GitHash: 3bbd232]
Copyright (C) 2002-2017 Konrad-Zuse-Zentrum fuer Informationstechnik Berlin (ZIB)

External codes: 
  Readline EditLine w  GNU library for command line editing (gnu.org/s/readline)
  CppAD 20160000.1     Algorithmic Differentiation of C++ algorithms developed by B. Bell (www.coin-or.org/CppAD)
  ZLIB 1.2.5           General purpose compression library by J. Gailly and M. Adler (zlib.net)
  GMP 6.1.2            GNU Multiple Precision Arithmetic Library developed by T. Granlund (gmplib.org)

user parameter file <scip.set> not found - using default parameters

read problem <../../Split_data/output/statG/2/1_sample_statG.logreg>
============

File name	:	../../Split_data/output/statG/2/1_sample_statG.logreg
Problem name 	:	1_sample_statG
Number of data	:	800
Number of var	:	61
The given data has linear dependence
13 sets of column vector are linearly dependent:

[dim=1] time: 0.043671
[dim=2] time: 0.091003
[dim=3] time: 0.136448
[dim=4] time: 0.183908
[dim=5] time: 0.229043
[dim=6] time: 0.271983
[dim=7] time: 0.317674
[dim=8] time: 0.359443
[dim=9] time: 0.401405
[dim=10] time: 0.444392
[dim=11] time: 0.494828
[dim=12] time: 0.534351
[dim=13] time: 0.574773
[dim=14] time: 0.619184
[dim=15] time: 0.660913
[dim=16] time: 0.69982
[dim=17] time: 0.747386
[dim=18] time: 0.789958
[dim=19] time: 0.830297
[dim=20] time: 0.874041
[dim=21] time: 0.912823
[dim=22] time: 0.947542
[dim=23] time: 0.983079
[dim=24] time: 1.01859
[dim=25] time: 1.04824
[dim=26] time: 1.09165
[dim=27] Time of forward = 1.12061sec.
AIC: 754.368
k: 26

[dim=48] time: 0.120277
[dim=47] time: 0.194608
[dim=46] time: 0.287545
[dim=45] time: 0.35337
[dim=44] time: 0.422845
[dim=43] time: 0.479124
[dim=42] time: 0.554931
[dim=41] time: 0.624582
[dim=40] time: 0.677707
[dim=39] time: 0.725687
[dim=38] time: 0.78345
[dim=37] time: 0.842794
[dim=36] time: 0.895437
[dim=35] time: 0.939946
[dim=34] time: 0.987612
[dim=33] time: 1.03377
[dim=32] time: 1.07861
[dim=31] time: 1.11919
[dim=30] time: 1.17397
[dim=29] time: 1.22778
[dim=28] Time of backward = 1.26447sec.
AIC: 759.52
k: 29
